Medium-instances_NetworkFacilityLocation/2023-03-27_20hr-25min-09sec/Nodes40_Arcs55_LocNodes30/Formulation-2Instance-2.lp
\ Model LocPrice
\ LP format - for model browsing. Use MPS format to capture full model detail.
Maximize
  - 156 x[1] - 166 x[2] - 176 x[3] - 199 x[4] - 162 x[5] - 177 x[6]
   - 174 x[7] - 175 x[8] - 177 x[9] - 185 x[10] - 155 x[13] - 199 x[14]
   - 193 x[15] - 188 x[16] - 163 x[18] - 172 x[20] - 172 x[21] - 165 x[22]
   - 152 x[24] - 187 x[25] - 150 x[26] - 188 x[27] - 159 x[29] - 182 x[30]
   - 167 x[32] - 161 x[33] - 196 x[35] - 173 x[36] - 194 x[37] - 159 x[39]
   - 3.909519637165163 Q[1] - 4.333986087707761 Q[2]
   - 4.717509804919708 Q[3] - 3.674595011497398 Q[4]
   - 4.587309055517312 Q[5] - 3.797974506176088 Q[6]
   - 4.188107764775415 Q[7] - 4.474933965580454 Q[8]
   - 4.002714408834253 Q[9] - 4.381551542413399 Q[10]
   - 4.394626964717602 Q[13] - 3.011425379855837 Q[14]
   - 3.078131066511629 Q[15] - 3.298076621631099 Q[16]
   - 3.427270268698465 Q[18] - 3.406429214189064 Q[20]
   - 3.097931163505899 Q[21] - 3.43442280449956 Q[22]
   - 4.201894738800593 Q[24] - 4.772150322860706 Q[25]
   - 3.699007615345662 Q[26] - 3.732809597812764 Q[27]
   - 3.833483466289538 Q[29] - 4.360683566092261 Q[30]
   - 4.570547904417624 Q[32] - 4.881916164619189 Q[33]
   - 3.751400082959423 Q[35] - 4.413548408947846 Q[36]
   - 3.68326801994834 Q[37] - 4.648003597285686 Q[39]
   - 0.5774596872442475 f[2,1] - 2.03377902921134 f[3,2]
   - 1.504968614350578 f[4,3] - 1.647093123331568 f[5,1]
   - 1.359492835015802 f[6,5] - 0.8230437802450236 f[7,3]
   - 1.465043493139369 f[8,4] - 2.767338381867108 f[9,6]
   - 0.6044847842444452 f[10,3] - 2.198202316088961 f[11,10]
   - 0.7533890377527187 f[12,1] - 0.5802481438389209 f[13,4]
   - 0.9715361449598641 f[14,5] - 0.2783375058535296 f[15,8]
   - 2.806122878016664 f[16,7] - 1.095401994274967 f[17,3]
   - 0.5275130194315191 f[18,1] - 4.08038e-06 f[19,1]
   - 0.1812825253460355 f[20,1] - 0.643954374609501 f[21,3]
   - 1.252960957624483 f[22,21] - 1.804710693718853 f[23,5]
   - 2.943091852173133 f[24,16] - 2.671431629093433 f[25,19]
   - 0.7267622461693095 f[26,6] - 1.834635711952963 f[27,8]
   - 2.764625491463712 f[28,12] - 0.3048070437413093 f[29,8]
   - 2.56211680615964 f[30,29] - 1.188212082754511 f[31,6]
   - 2.345062307875951 f[32,28] - 0.9677915150811062 f[33,26]
   - 1.877168534463604 f[34,28] - 1.521047487830574 f[35,4]
   - 0.3132636171854221 f[36,14] - 2.279406286967133 f[37,23]
   - 2.468832735643432 f[38,19] - 1.448954554555235 f[39,26]
   - 1.164030985416721 f[40,27] - 0.7321558235008455 f[22,24]
   - 0.1826758358862842 f[18,34] - 0.0467388529527916 f[1,24]
   - 1.7531602423875 f[21,38] - 1.098772524299728 f[24,9]
   - 2.203762186451291 f[18,23] - 0.2512554766679644 f[23,34]
   - 1.962911871077556 f[29,33] - 1.545957152353073 f[25,27]
   - 0.7616171049455923 f[3,17] - 0.7316511907460491 f[23,40]
   - 2.396447278039044 f[7,28] - 1.754962519800747 f[33,39]
   - 1.565826446063543 f[4,18] - 0.637764065950171 f[28,16]
   - 0.2154524677700779 f[40,21] + 1396 D[1] + 1382 D[3] + 1436 D[7]
   + 1494 D[8] + 1457 D[10] + 1329 D[11] + 1367 D[13] + 1407 D[14]
   + 1388 D[21] + 1346 D[22] + 1313 D[23] + 1429 D[26] + 1373 D[30]
   + 1363 D[31] + 1489 D[32] + 1465 D[33] + 1400 D[37] + 1481 D[38]
   + 1411 D[39] + 1483 D[40] - 1.947491670074303 S[1]
   - 1.37430963572834 S[4] - 1.879618814463811 S[5]
   - 1.418574052549441 S[6] - 1.373516191912818 S[7]
   - 1.361427635295523 S[11] - 1.059997486360102 S[12]
   - 1.277318609307478 S[18] - 1.229480126401417 S[21]
   - 1.062344360491096 S[23] - 1.541568640968512 S[25]
   - 1.442201115831941 S[26] - 1.025108339322997 S[27]
   - 1.155919107122775 S[29] - 1.918707393289783 S[31]
   - 1.133605071186001 S[32] - 1.373328219329378 S[34]
   - 1.950776588180089 S[38] - 1.113355892921577 S[39]
   - 1.409828490048374 S[40] + [ - 0.9225956149553531 f[2,1] ^2
   - 3.484054847364864 f[3,2] ^2 - 2.020421012401489 f[4,3] ^2
   - 2.90137612667519 f[5,1] ^2 - 2.139972058990832 f[6,5] ^2
   - 1.264485397142478 f[7,3] ^2 - 1.977207596953813 f[8,4] ^2
   - 0.2018016546320838 f[9,6] ^2 - 0.1719702596184547 f[10,3] ^2
   - 2.119853305610918 f[11,10] ^2 - 1.908697903611262 f[12,1] ^2
   - 3.332549304732447 f[13,4] ^2 - 0.0804904716502435 f[14,5] ^2
   - 2.227535242793344 f[15,8] ^2 - 1.96254841739393 f[16,7] ^2
   - 2.39198855020263 f[17,3] ^2 - 2.918314496510899 f[18,1] ^2
   - 2.098962435213186 f[19,1] ^2 - 2.252152881425487 f[20,1] ^2
   - 1.967135518433867 f[21,3] ^2 - 2.460827995642022 f[22,21] ^2
   - 0.9925088602114327 f[23,5] ^2 - 2.21045371644612 f[24,16] ^2
   - 2.689547273645115 f[25,19] ^2 - 0.7644511236109515 f[26,6] ^2
   - 3.961468322255743 f[27,8] ^2 - 2.985837917318228 f[28,12] ^2
   - 3.821325067207518 f[29,8] ^2 - 1.175785484753017 f[30,29] ^2
   - 1.773971506379302 f[31,6] ^2 - 1.04575421791206 f[32,28] ^2
   - 0.1867664614876992 f[33,26] ^2 - 0.0667073530822839 f[34,28] ^2
   - 0.9869913646389921 f[35,4] ^2 - 3.445050129001101 f[36,14] ^2
   - 0.6547766424010093 f[37,23] ^2 - 2.758490400756264 f[38,19] ^2
   - 0.9975275615671642 f[39,26] ^2 - 0.2623317466293527 f[40,27] ^2
   - 3.353794748662925 f[22,24] ^2 - 0.2315020735063382 f[18,34] ^2
   - 3.269070523238512 f[1,24] ^2 - 1.058133394698923 f[21,38] ^2
   - 3.899715938358787 f[24,9] ^2 - 1.126633565844214 f[18,23] ^2
   - 2.382674273544826 f[23,34] ^2 - 1.959265000934404 f[29,33] ^2
   - 1.215278339041065 f[25,27] ^2 - 0.7295504697215027 f[3,17] ^2
   - 2.351566709891233 f[23,40] ^2 - 3.59035726296917 f[7,28] ^2
   - 2.332437678800436 f[33,39] ^2 - 2.084450576307064 f[4,18] ^2
   - 0.3096438792263925 f[28,16] ^2 - 1.02105776294725 f[40,21] ^2
   - 7.13435821251684 D[1] ^2 - 7.608913250591032 D[3] ^2
   - 6.519152879235538 D[7] ^2 - 6.633162838454614 D[8] ^2
   - 7.773646200344513 D[10] ^2 - 6.999862119048682 D[11] ^2
   - 7.919675134609305 D[13] ^2 - 6.277884600325926 D[14] ^2
   - 7.566317170495932 D[21] ^2 - 6.946031983724343 D[22] ^2
   - 6.947700257110411 D[23] ^2 - 7.762150730806058 D[26] ^2
   - 6.261290132044683 D[30] ^2 - 7.028894334909887 D[31] ^2
   - 6.499152692673727 D[32] ^2 - 6.685657861672947 D[33] ^2
   - 7.634645895674966 D[37] ^2 - 6.796321630893075 D[38] ^2
   - 7.568824875815798 D[39] ^2 - 6.026978635766183 D[40] ^2
   - 1.602227665980462 S[1] ^2 - 0.0381669224487247 S[4] ^2
   - 0.1356480890446572 S[5] ^2 - 1.859856971054491 S[6] ^2
   - 1.368463194853616 S[7] ^2 - 0.5220758575445097 S[11] ^2
   - 0.9604784234037711 S[12] ^2 - 0.4978957768087497 S[18] ^2
   - 1.784877179516293 S[21] ^2 - 1.899615773516378 S[23] ^2
   - 0.1420537886756112 S[25] ^2 - 1.048168306665086 S[26] ^2
   - 0.3680764151101352 S[27] ^2 - 0.8087644837375354 S[29] ^2
   - 1.482389120558233 S[31] ^2 - 1.426655835822974 S[32] ^2
   - 0.3796296903087546 S[34] ^2 - 0.6645551987767757 S[38] ^2
   - 0.8505349829955535 S[39] ^2 - 0.7725705079617355 S[40] ^2 ] / 2 
Subject To
 R0: Q[1] + Q[2] + Q[3] + Q[4] + Q[5] + Q[6] + Q[7] + Q[8] + Q[9] + Q[10]
   + Q[13] + Q[14] + Q[15] + Q[16] + Q[18] + Q[20] + Q[21] + Q[22] + Q[24]
   + Q[25] + Q[26] + Q[27] + Q[29] + Q[30] + Q[32] + Q[33] + Q[35] + Q[36]
   + Q[37] + Q[39] <= 2625
 R1: - 140 x[1] + Q[1] <= 0
 R2: - 115 x[2] + Q[2] <= 0
 R3: - 100 x[3] + Q[3] <= 0
 R4: - 179 x[4] + Q[4] <= 0
 R5: - 142 x[5] + Q[5] <= 0
 R6: - 135 x[6] + Q[6] <= 0
 R7: - 163 x[7] + Q[7] <= 0
 R8: - 156 x[8] + Q[8] <= 0
 R9: - 193 x[9] + Q[9] <= 0
 R10: - 161 x[10] + Q[10] <= 0
 R11: - 192 x[13] + Q[13] <= 0
 R12: - 157 x[14] + Q[14] <= 0
 R13: - 132 x[15] + Q[15] <= 0
 R14: - 132 x[16] + Q[16] <= 0
 R15: - 198 x[18] + Q[18] <= 0
 R16: - 158 x[20] + Q[20] <= 0
 R17: - 118 x[21] + Q[21] <= 0
 R18: - 183 x[22] + Q[22] <= 0
 R19: - 182 x[24] + Q[24] <= 0
 R20: - 101 x[25] + Q[25] <= 0
 R21: - 115 x[26] + Q[26] <= 0
 R22: - 169 x[27] + Q[27] <= 0
 R23: - 140 x[29] + Q[29] <= 0
 R24: - 134 x[30] + Q[30] <= 0
 R25: - 107 x[32] + Q[32] <= 0
 R26: - 119 x[33] + Q[33] <= 0
 R27: - 185 x[35] + Q[35] <= 0
 R28: - 183 x[36] + Q[36] <= 0
 R29: - 182 x[37] + Q[37] <= 0
 R30: - 157 x[39] + Q[39] <= 0
 node[2]: - Q[2] + f[2,1] - f[3,2] = 0
 node[35]: - Q[35] + f[35,4] = 0
 node[36]: - Q[36] + f[36,14] = 0
 node[9]: - Q[9] + f[9,6] - f[24,9] = 0
 node[15]: - Q[15] + f[15,8] = 0
 node[16]: - Q[16] + f[16,7] - f[24,16] - f[28,16] = 0
 node[20]: - Q[20] + f[20,1] = 0
 node[24]: - Q[24] + f[24,16] - f[22,24] - f[1,24] + f[24,9] = 0
 node[4]: - Q[4] + f[4,3] - f[8,4] - f[13,4] - f[35,4] + f[4,18] - S[4]
   = 0
 node[5]: - Q[5] + f[5,1] - f[6,5] - f[14,5] - f[23,5] - S[5] = 0
 node[6]: - Q[6] + f[6,5] - f[9,6] - f[26,6] - f[31,6] - S[6] = 0
 node[18]: - Q[18] + f[18,1] + f[18,34] + f[18,23] - f[4,18] - S[18] = 0
 node[25]: - Q[25] + f[25,19] + f[25,27] - S[25] = 0
 node[27]: - Q[27] + f[27,8] - f[40,27] - f[25,27] - S[27] = 0
 node[29]: - Q[29] + f[29,8] - f[30,29] + f[29,33] - S[29] = 0
 node[33]: - Q[33] + f[33,26] - f[29,33] + f[33,39] + D[33] = 0
 node[3]: - Q[3] + f[3,2] - f[4,3] - f[7,3] - f[10,3] - f[17,3] - f[21,3]
   + f[3,17] + D[3] = 0
 node[37]: - Q[37] + f[37,23] + D[37] = 0
 node[8]: - Q[8] + f[8,4] - f[15,8] - f[27,8] - f[29,8] + D[8] = 0
 node[10]: - Q[10] + f[10,3] - f[11,10] + D[10] = 0
 node[13]: - Q[13] + f[13,4] + D[13] = 0
 node[14]: - Q[14] + f[14,5] - f[36,14] + D[14] = 0
 node[22]: - Q[22] + f[22,21] + f[22,24] + D[22] = 0
 node[30]: - Q[30] + f[30,29] + D[30] = 0
 node[32]: - Q[32] + f[32,28] + D[32] - S[32] = 0
 node[1]: - Q[1] - f[2,1] - f[5,1] - f[12,1] - f[18,1] - f[19,1] - f[20,1]
   + f[1,24] + D[1] - S[1] = 0
 node[39]: - Q[39] + f[39,26] - f[33,39] + D[39] - S[39] = 0
 node[7]: - Q[7] + f[7,3] - f[16,7] + f[7,28] + D[7] - S[7] = 0
 node[21]: - Q[21] + f[21,3] - f[22,21] + f[21,38] - f[40,21] + D[21]
   - S[21] = 0
 node[26]: - Q[26] + f[26,6] - f[33,26] - f[39,26] + D[26] - S[26] = 0
 node[17]: f[17,3] - f[3,17] = 0
 node[19]: f[19,1] - f[25,19] - f[38,19] = 0
 node[28]: f[28,12] - f[32,28] - f[34,28] - f[7,28] + f[28,16] = 0
 node[34]: f[34,28] - f[18,34] - f[23,34] - S[34] = 0
 node[12]: f[12,1] - f[28,12] - S[12] = 0
 node[38]: f[38,19] - f[21,38] + D[38] - S[38] = 0
 node[40]: f[40,27] - f[23,40] + f[40,21] + D[40] - S[40] = 0
 node[11]: f[11,10] + D[11] - S[11] = 0
 node[23]: f[23,5] - f[37,23] - f[18,23] + f[23,34] + f[23,40] + D[23]
   - S[23] = 0
 node[31]: f[31,6] + D[31] - S[31] = 0
 Cost_Flow[2,1]: - pi[1] + pi[2] + 0.4612978074776766 f[2,1] - mu_f[2,1]
   = -0.5774596872442475
 Cost_Flow[3,2]: - pi[2] + pi[3] + 1.742027423682432 f[3,2] - mu_f[3,2]
   = -2.03377902921134
 Cost_Flow[4,3]: - pi[3] + pi[4] + 1.010210506200744 f[4,3] - mu_f[4,3]
   = -1.504968614350578
 Cost_Flow[5,1]: - pi[1] + pi[5] + 1.450688063337595 f[5,1] - mu_f[5,1]
   = -1.647093123331568
 Cost_Flow[6,5]: - pi[5] + pi[6] + 1.069986029495416 f[6,5] - mu_f[6,5]
   = -1.359492835015802
 Cost_Flow[7,3]: - pi[3] + pi[7] + 0.632242698571239 f[7,3] - mu_f[7,3]
   = -0.8230437802450236
 Cost_Flow[8,4]: - pi[4] + pi[8] + 0.9886037984769065 f[8,4] - mu_f[8,4]
   = -1.465043493139369
 Cost_Flow[9,6]: - pi[6] + pi[9] + 0.1009008273160419 f[9,6] - mu_f[9,6]
   = -2.767338381867108
 Cost_Flow[10,3]: - pi[3] + pi[10] + 0.0859851298092273 f[10,3]
   - mu_f[10,3] = -0.6044847842444452
 Cost_Flow[11,10]: - pi[10] + pi[11] + 1.059926652805459 f[11,10]
   - mu_f[11,10] = -2.198202316088961
 Cost_Flow[12,1]: - pi[1] + pi[12] + 0.9543489518056312 f[12,1]
   - mu_f[12,1] = -0.7533890377527187
 Cost_Flow[13,4]: - pi[4] + pi[13] + 1.666274652366224 f[13,4] - mu_f[13,4]
   = -0.5802481438389209
 Cost_Flow[14,5]: - pi[5] + pi[14] + 0.0402452358251217 f[14,5]
   - mu_f[14,5] = -0.9715361449598641
 Cost_Flow[15,8]: - pi[8] + pi[15] + 1.113767621396672 f[15,8] - mu_f[15,8]
   = -0.2783375058535296
 Cost_Flow[16,7]: - pi[7] + pi[16] + 0.9812742086969648 f[16,7]
   - mu_f[16,7] = -2.806122878016664
 Cost_Flow[17,3]: - pi[3] + pi[17] + 1.195994275101315 f[17,3] - mu_f[17,3]
   = -1.095401994274967
 Cost_Flow[18,1]: - pi[1] + pi[18] + 1.459157248255449 f[18,1] - mu_f[18,1]
   = -0.5275130194315191
 Cost_Flow[19,1]: - pi[1] + pi[19] + 1.049481217606593 f[19,1] - mu_f[19,1]
   = -4.08038e-06
 Cost_Flow[20,1]: - pi[1] + pi[20] + 1.126076440712743 f[20,1] - mu_f[20,1]
   = -0.1812825253460355
 Cost_Flow[21,3]: - pi[3] + pi[21] + 0.9835677592169334 f[21,3]
   - mu_f[21,3] = -0.643954374609501
 Cost_Flow[22,21]: - pi[21] + pi[22] + 1.230413997821011 f[22,21]
   - mu_f[22,21] = -1.252960957624483
 Cost_Flow[23,5]: - pi[5] + pi[23] + 0.4962544301057163 f[23,5]
   - mu_f[23,5] = -1.804710693718853
 Cost_Flow[24,16]: - pi[16] + pi[24] + 1.10522685822306 f[24,16]
   - mu_f[24,16] = -2.943091852173133
 Cost_Flow[25,19]: - pi[19] + pi[25] + 1.344773636822558 f[25,19]
   - mu_f[25,19] = -2.671431629093433
 Cost_Flow[26,6]: - pi[6] + pi[26] + 0.3822255618054757 f[26,6]
   - mu_f[26,6] = -0.7267622461693095
 Cost_Flow[27,8]: - pi[8] + pi[27] + 1.980734161127872 f[27,8] - mu_f[27,8]
   = -1.834635711952963
 Cost_Flow[28,12]: - pi[12] + pi[28] + 1.492918958659114 f[28,12]
   - mu_f[28,12] = -2.764625491463712
 Cost_Flow[29,8]: - pi[8] + pi[29] + 1.910662533603759 f[29,8] - mu_f[29,8]
   = -0.3048070437413093
 Cost_Flow[30,29]: - pi[29] + pi[30] + 0.5878927423765086 f[30,29]
   - mu_f[30,29] = -2.56211680615964
 Cost_Flow[31,6]: - pi[6] + pi[31] + 0.886985753189651 f[31,6] - mu_f[31,6]
   = -1.188212082754511
 Cost_Flow[32,28]: - pi[28] + pi[32] + 0.52287710895603 f[32,28]
   - mu_f[32,28] = -2.345062307875951
 Cost_Flow[33,26]: - pi[26] + pi[33] + 0.0933832307438496 f[33,26]
   - mu_f[33,26] = -0.9677915150811062
 Cost_Flow[34,28]: - pi[28] + pi[34] + 0.033353676541142 f[34,28]
   - mu_f[34,28] = -1.877168534463604
 Cost_Flow[35,4]: - pi[4] + pi[35] + 0.493495682319496 f[35,4] - mu_f[35,4]
   = -1.521047487830574
 Cost_Flow[36,14]: - pi[14] + pi[36] + 1.722525064500551 f[36,14]
   - mu_f[36,14] = -0.3132636171854221
 Cost_Flow[37,23]: - pi[23] + pi[37] + 0.3273883212005047 f[37,23]
   - mu_f[37,23] = -2.279406286967133
 Cost_Flow[38,19]: - pi[19] + pi[38] + 1.379245200378132 f[38,19]
   - mu_f[38,19] = -2.468832735643432
 Cost_Flow[39,26]: - pi[26] + pi[39] + 0.4987637807835821 f[39,26]
   - mu_f[39,26] = -1.448954554555235
 Cost_Flow[40,27]: - pi[27] + pi[40] + 0.1311658733146763 f[40,27]
   - mu_f[40,27] = -1.164030985416721
 Cost_Flow[22,24]: pi[22] - pi[24] + 1.676897374331463 f[22,24]
   - mu_f[22,24] = -0.7321558235008455
 Cost_Flow[18,34]: pi[18] - pi[34] + 0.1157510367531691 f[18,34]
   - mu_f[18,34] = -0.1826758358862842
 Cost_Flow[1,24]: pi[1] - pi[24] + 1.634535261619256 f[1,24] - mu_f[1,24]
   = -0.0467388529527916
 Cost_Flow[21,38]: pi[21] - pi[38] + 0.5290666973494615 f[21,38]
   - mu_f[21,38] = -1.7531602423875
 Cost_Flow[24,9]: - pi[9] + pi[24] + 1.949857969179393 f[24,9] - mu_f[24,9]
   = -1.098772524299728
 Cost_Flow[18,23]: pi[18] - pi[23] + 0.5633167829221069 f[18,23]
   - mu_f[18,23] = -2.203762186451291
 Cost_Flow[23,34]: pi[23] - pi[34] + 1.191337136772413 f[23,34]
   - mu_f[23,34] = -0.2512554766679644
 Cost_Flow[29,33]: pi[29] - pi[33] + 0.9796325004672022 f[29,33]
   - mu_f[29,33] = -1.962911871077556
 Cost_Flow[25,27]: pi[25] - pi[27] + 0.6076391695205323 f[25,27]
   - mu_f[25,27] = -1.545957152353073
 Cost_Flow[3,17]: pi[3] - pi[17] + 0.3647752348607514 f[3,17] - mu_f[3,17]
   = -0.7616171049455923
 Cost_Flow[23,40]: pi[23] - pi[40] + 1.175783354945616 f[23,40]
   - mu_f[23,40] = -0.7316511907460491
 Cost_Flow[7,28]: pi[7] - pi[28] + 1.795178631484585 f[7,28] - mu_f[7,28]
   = -2.396447278039044
 Cost_Flow[33,39]: pi[33] - pi[39] + 1.166218839400218 f[33,39]
   - mu_f[33,39] = -1.754962519800747
 Cost_Flow[4,18]: pi[4] - pi[18] + 1.042225288153532 f[4,18] - mu_f[4,18]
   = -1.565826446063543
 Cost_Flow[28,16]: - pi[16] + pi[28] + 0.1548219396131962 f[28,16]
   - mu_f[28,16] = -0.637764065950171
 Cost_Flow[40,21]: - pi[21] + pi[40] + 0.5105288814736251 f[40,21]
   - mu_f[40,21] = -0.2154524677700779
 Cost_Demand[1]: pi[1] + 3.56717910625842 D[1] - mu_D[1] = 1396
 Cost_Demand[3]: pi[3] + 3.804456625295516 D[3] - mu_D[3] = 1382
 Cost_Demand[7]: pi[7] + 3.259576439617769 D[7] - mu_D[7] = 1436
 Cost_Demand[8]: pi[8] + 3.316581419227307 D[8] - mu_D[8] = 1494
 Cost_Demand[10]: pi[10] + 3.886823100172256 D[10] - mu_D[10] = 1457
 Cost_Demand[11]: pi[11] + 3.499931059524341 D[11] - mu_D[11] = 1329
 Cost_Demand[13]: pi[13] + 3.959837567304652 D[13] - mu_D[13] = 1367
 Cost_Demand[14]: pi[14] + 3.138942300162963 D[14] - mu_D[14] = 1407
 Cost_Demand[21]: pi[21] + 3.783158585247966 D[21] - mu_D[21] = 1388
 Cost_Demand[22]: pi[22] + 3.473015991862172 D[22] - mu_D[22] = 1346
 Cost_Demand[23]: pi[23] + 3.473850128555205 D[23] - mu_D[23] = 1313
 Cost_Demand[26]: pi[26] + 3.881075365403029 D[26] - mu_D[26] = 1429
 Cost_Demand[30]: pi[30] + 3.130645066022341 D[30] - mu_D[30] = 1373
 Cost_Demand[31]: pi[31] + 3.514447167454943 D[31] - mu_D[31] = 1363
 Cost_Demand[32]: pi[32] + 3.249576346336863 D[32] - mu_D[32] = 1489
 Cost_Demand[33]: pi[33] + 3.342828930836474 D[33] - mu_D[33] = 1465
 Cost_Demand[37]: pi[37] + 3.817322947837483 D[37] - mu_D[37] = 1400
 Cost_Demand[38]: pi[38] + 3.398160815446538 D[38] - mu_D[38] = 1481
 Cost_Demand[39]: pi[39] + 3.784412437907899 D[39] - mu_D[39] = 1411
 Cost_Demand[40]: pi[40] + 3.013489317883091 D[40] - mu_D[40] = 1483
 Cost_Supply[1]: - pi[1] + 0.8011138329902308 S[1] - mu_S[1]
   = -1.947491670074303
 Cost_Supply[4]: - pi[4] + 0.0190834612243623 S[4] - mu_S[4]
   = -1.37430963572834
 Cost_Supply[5]: - pi[5] + 0.0678240445223286 S[5] - mu_S[5]
   = -1.879618814463811
 Cost_Supply[6]: - pi[6] + 0.9299284855272455 S[6] - mu_S[6]
   = -1.418574052549441
 Cost_Supply[7]: - pi[7] + 0.6842315974268082 S[7] - mu_S[7]
   = -1.373516191912818
 Cost_Supply[11]: - pi[11] + 0.2610379287722548 S[11] - mu_S[11]
   = -1.361427635295523
 Cost_Supply[12]: - pi[12] + 0.4802392117018855 S[12] - mu_S[12]
   = -1.059997486360102
 Cost_Supply[18]: - pi[18] + 0.2489478884043749 S[18] - mu_S[18]
   = -1.277318609307478
 Cost_Supply[21]: - pi[21] + 0.8924385897581464 S[21] - mu_S[21]
   = -1.229480126401417
 Cost_Supply[23]: - pi[23] + 0.9498078867581892 S[23] - mu_S[23]
   = -1.062344360491096
 Cost_Supply[25]: - pi[25] + 0.0710268943378056 S[25] - mu_S[25]
   = -1.541568640968512
 Cost_Supply[26]: - pi[26] + 0.5240841533325432 S[26] - mu_S[26]
   = -1.442201115831941
 Cost_Supply[27]: - pi[27] + 0.1840382075550676 S[27] - mu_S[27]
   = -1.025108339322997
 Cost_Supply[29]: - pi[29] + 0.4043822418687677 S[29] - mu_S[29]
   = -1.155919107122775
 Cost_Supply[31]: - pi[31] + 0.7411945602791167 S[31] - mu_S[31]
   = -1.918707393289783
 Cost_Supply[32]: - pi[32] + 0.7133279179114868 S[32] - mu_S[32]
   = -1.133605071186001
 Cost_Supply[34]: - pi[34] + 0.1898148451543773 S[34] - mu_S[34]
   = -1.373328219329378
 Cost_Supply[38]: - pi[38] + 0.3322775993883879 S[38] - mu_S[38]
   = -1.950776588180089
 Cost_Supply[39]: - pi[39] + 0.4252674914977768 S[39] - mu_S[39]
   = -1.113355892921577
 Cost_Supply[40]: - pi[40] + 0.3862852539808678 S[40] - mu_S[40]
   = -1.409828490048374
Bounds
Binaries
 x[1] x[2] x[3] x[4] x[5] x[6] x[7] x[8] x[9] x[10] x[13] x[14] x[15] x[16]
 x[18] x[20] x[21] x[22] x[24] x[25] x[26] x[27] x[29] x[30] x[32] x[33]
 x[35] x[36] x[37] x[39]
SOS
 s0:  S1 :: f[2,1]:1 mu_f[2,1]:2
 s1:  S1 :: f[3,2]:1 mu_f[3,2]:2
 s2:  S1 :: f[4,3]:1 mu_f[4,3]:2
 s3:  S1 :: f[5,1]:1 mu_f[5,1]:2
 s4:  S1 :: f[6,5]:1 mu_f[6,5]:2
 s5:  S1 :: f[7,3]:1 mu_f[7,3]:2
 s6:  S1 :: f[8,4]:1 mu_f[8,4]:2
 s7:  S1 :: f[9,6]:1 mu_f[9,6]:2
 s8:  S1 :: f[10,3]:1 mu_f[10,3]:2
 s9:  S1 :: f[11,10]:1 mu_f[11,10]:2
 s10:  S1 :: f[12,1]:1 mu_f[12,1]:2
 s11:  S1 :: f[13,4]:1 mu_f[13,4]:2
 s12:  S1 :: f[14,5]:1 mu_f[14,5]:2
 s13:  S1 :: f[15,8]:1 mu_f[15,8]:2
 s14:  S1 :: f[16,7]:1 mu_f[16,7]:2
 s15:  S1 :: f[17,3]:1 mu_f[17,3]:2
 s16:  S1 :: f[18,1]:1 mu_f[18,1]:2
 s17:  S1 :: f[19,1]:1 mu_f[19,1]:2
 s18:  S1 :: f[20,1]:1 mu_f[20,1]:2
 s19:  S1 :: f[21,3]:1 mu_f[21,3]:2
 s20:  S1 :: f[22,21]:1 mu_f[22,21]:2
 s21:  S1 :: f[23,5]:1 mu_f[23,5]:2
 s22:  S1 :: f[24,16]:1 mu_f[24,16]:2
 s23:  S1 :: f[25,19]:1 mu_f[25,19]:2
 s24:  S1 :: f[26,6]:1 mu_f[26,6]:2
 s25:  S1 :: f[27,8]:1 mu_f[27,8]:2
 s26:  S1 :: f[28,12]:1 mu_f[28,12]:2
 s27:  S1 :: f[29,8]:1 mu_f[29,8]:2
 s28:  S1 :: f[30,29]:1 mu_f[30,29]:2
 s29:  S1 :: f[31,6]:1 mu_f[31,6]:2
 s30:  S1 :: f[32,28]:1 mu_f[32,28]:2
 s31:  S1 :: f[33,26]:1 mu_f[33,26]:2
 s32:  S1 :: f[34,28]:1 mu_f[34,28]:2
 s33:  S1 :: f[35,4]:1 mu_f[35,4]:2
 s34:  S1 :: f[36,14]:1 mu_f[36,14]:2
 s35:  S1 :: f[37,23]:1 mu_f[37,23]:2
 s36:  S1 :: f[38,19]:1 mu_f[38,19]:2
 s37:  S1 :: f[39,26]:1 mu_f[39,26]:2
 s38:  S1 :: f[40,27]:1 mu_f[40,27]:2
 s39:  S1 :: f[22,24]:1 mu_f[22,24]:2
 s40:  S1 :: f[18,34]:1 mu_f[18,34]:2
 s41:  S1 :: f[1,24]:1 mu_f[1,24]:2
 s42:  S1 :: f[21,38]:1 mu_f[21,38]:2
 s43:  S1 :: f[24,9]:1 mu_f[24,9]:2
 s44:  S1 :: f[18,23]:1 mu_f[18,23]:2
 s45:  S1 :: f[23,34]:1 mu_f[23,34]:2
 s46:  S1 :: f[29,33]:1 mu_f[29,33]:2
 s47:  S1 :: f[25,27]:1 mu_f[25,27]:2
 s48:  S1 :: f[3,17]:1 mu_f[3,17]:2
 s49:  S1 :: f[23,40]:1 mu_f[23,40]:2
 s50:  S1 :: f[7,28]:1 mu_f[7,28]:2
 s51:  S1 :: f[33,39]:1 mu_f[33,39]:2
 s52:  S1 :: f[4,18]:1 mu_f[4,18]:2
 s53:  S1 :: f[28,16]:1 mu_f[28,16]:2
 s54:  S1 :: f[40,21]:1 mu_f[40,21]:2
 s55:  S1 :: D[1]:1 mu_D[1]:2
 s56:  S1 :: D[3]:1 mu_D[3]:2
 s57:  S1 :: D[7]:1 mu_D[7]:2
 s58:  S1 :: D[8]:1 mu_D[8]:2
 s59:  S1 :: D[10]:1 mu_D[10]:2
 s60:  S1 :: D[11]:1 mu_D[11]:2
 s61:  S1 :: D[13]:1 mu_D[13]:2
 s62:  S1 :: D[14]:1 mu_D[14]:2
 s63:  S1 :: D[21]:1 mu_D[21]:2
 s64:  S1 :: D[22]:1 mu_D[22]:2
 s65:  S1 :: D[23]:1 mu_D[23]:2
 s66:  S1 :: D[26]:1 mu_D[26]:2
 s67:  S1 :: D[30]:1 mu_D[30]:2
 s68:  S1 :: D[31]:1 mu_D[31]:2
 s69:  S1 :: D[32]:1 mu_D[32]:2
 s70:  S1 :: D[33]:1 mu_D[33]:2
 s71:  S1 :: D[37]:1 mu_D[37]:2
 s72:  S1 :: D[38]:1 mu_D[38]:2
 s73:  S1 :: D[39]:1 mu_D[39]:2
 s74:  S1 :: D[40]:1 mu_D[40]:2
 s75:  S1 :: S[1]:1 mu_S[1]:2
 s76:  S1 :: S[4]:1 mu_S[4]:2
 s77:  S1 :: S[5]:1 mu_S[5]:2
 s78:  S1 :: S[6]:1 mu_S[6]:2
 s79:  S1 :: S[7]:1 mu_S[7]:2
 s80:  S1 :: S[11]:1 mu_S[11]:2
 s81:  S1 :: S[12]:1 mu_S[12]:2
 s82:  S1 :: S[18]:1 mu_S[18]:2
 s83:  S1 :: S[21]:1 mu_S[21]:2
 s84:  S1 :: S[23]:1 mu_S[23]:2
 s85:  S1 :: S[25]:1 mu_S[25]:2
 s86:  S1 :: S[26]:1 mu_S[26]:2
 s87:  S1 :: S[27]:1 mu_S[27]:2
 s88:  S1 :: S[29]:1 mu_S[29]:2
 s89:  S1 :: S[31]:1 mu_S[31]:2
 s90:  S1 :: S[32]:1 mu_S[32]:2
 s91:  S1 :: S[34]:1 mu_S[34]:2
 s92:  S1 :: S[38]:1 mu_S[38]:2
 s93:  S1 :: S[39]:1 mu_S[39]:2
 s94:  S1 :: S[40]:1 mu_S[40]:2
End
