Medium-instances_NetworkFacilityLocation/2023-03-27_20hr-25min-09sec/Nodes40_Arcs55_LocNodes30/Formulation-2Instance-2.log

Gurobi 9.5.2 (win64) logging started Mon Mar 27 20:28:11 2023

Set parameter LogFile to value "2023-03-27_20hr-25min-09sec/Nodes40_Arcs55_LocNodes30/Formulation-2Instance-2.log"
Set parameter TimeLimit to value 600
Set parameter IntFeasTol to value 1e-09
Set parameter DualReductions to value 0
Set parameter NonConvex to value 2
Gurobi Optimizer version 9.5.2 build v9.5.2rc0 (win64)
Thread count: 4 physical cores, 8 logical processors, using up to 8 threads
Optimize a model with 166 rows, 290 columns and 610 nonzeros
Model fingerprint: 0x17e3df70
Model has 95 quadratic objective terms
Model has 95 SOS constraints
Variable types: 260 continuous, 30 integer (30 binary)
Coefficient statistics:
  Matrix range     [2e-02, 2e+02]
  Objective range  [4e-06, 1e+03]
  QObjective range [4e-02, 8e+00]
  Bounds range     [1e+00, 1e+00]
  RHS range        [4e-06, 3e+03]
Presolve removed 14 rows and 14 columns
Presolve time: 0.00s
Presolved: 152 rows, 276 columns, 584 nonzeros
Presolved model has 95 SOS constraint(s)
Presolved model has 95 quadratic objective terms
Variable types: 246 continuous, 30 integer (30 binary)

Root relaxation: objective 9.009787e+05, 328 iterations, 0.00 seconds (0.00 work units)

    Nodes    |    Current Node    |     Objective Bounds      |     Work
 Expl Unexpl |  Obj  Depth IntInf | Incumbent    BestBd   Gap | It/Node Time

     0     0 900978.707    0   14          - 900978.707      -     -    0s
H    0     0                    889076.34289 900978.707  1.34%     -    0s
H    0     0                    899206.64914 900978.707  0.20%     -    0s
     0     0 900631.515    0   15 899206.649 900631.515  0.16%     -    0s
H    0     0                    899208.53484 900631.515  0.16%     -    0s
     0     0 900395.646    0   12 899208.535 900395.646  0.13%     -    0s
     0     0 900395.646    0   12 899208.535 900395.646  0.13%     -    0s
     0     0 899844.915    0   23 899208.535 899844.915  0.07%     -    0s
     0     0 899473.027    0   20 899208.535 899473.027  0.03%     -    0s
     0     0 899312.386    0   20 899208.535 899312.386  0.01%     -    0s

Cutting planes:
  Cover: 3
  Implied bound: 11
  MIR: 10
  Flow cover: 10
  Relax-and-lift: 5

Explored 1 nodes (623 simplex iterations) in 0.18 seconds (0.02 work units)
Thread count was 8 (of 8 available processors)

Solution count 3: 899209 889076 888903 

Optimal solution found (tolerance 1.00e-04)
Best objective 8.992085348407e+05, best bound 8.992738755734e+05, gap 0.0073%

User-callback calls 299, time in user-callback 0.00 sec
